(set-info :smt-lib-version 2.6)
(set-logic LRA)
(set-info :source |
   Monniaux, David; Quantifier Elimination by Lazy Model Enumeration, CAV 2010
|)
(set-info :category "random")
; ./Mjollnir_examples/B6/formula_251.m
(set-info :status unsat)
(assert
 (forall ((|v17:0| Real) )(forall ((|v16:1| Real) )(forall ((|v15:2| Real) )(forall ((|v14:3| Real) )(forall ((|v13:4| Real) )(forall ((|v12:5| Real) )(exists ((|v11:6| Real) )(exists ((|v10:7| Real) )(exists ((|v9:8| Real) )(exists ((|v8:9| Real) )(exists ((|v7:10| Real) )(exists ((|v6:11| Real) )(forall ((|v5:12| Real) )(forall ((|v4:13| Real) )(forall ((|v3:14| Real) )(forall ((|v2:15| Real) )(forall ((|v1:16| Real) )(forall ((|v0:17| Real) )(let ((?x79 17))
(let ((?x86 7))
(let ((?x1113 (* ?x86 |v10:7|)))
(let ((?x13 (- 11)))
(let ((?x47 (* ?x13 |v5:12|)))
(let ((?x130 16))
(let ((?x526 (* ?x130 |v7:10|)))
(let ((?x1507 (+ (+ (+ (* 8 |v8:9|) |v6:11|) (* (- 10) |v3:14|)) ?x526)))
(let ((?x28 (- 9)))
(let ((?x136 (- 13)))
(let ((?x137 (* ?x136 |v9:8|)))
(let ((?x117 9))
(let ((?x565 (* ?x117 |v6:11|)))
(let ((?x311 (- 14)))
(let ((?x741 (* ?x311 |v16:1|)))
(let ((?x866 (* ?x79 |v13:4|)))
(let ((?x1498 (+ (+ (* 8 |v3:14|) (* (- 15) |v13:4|)) (* 5 |v13:4|))))
(let (($x1513 (or (<= (+ (+ (+ (+ ?x1498 ?x866) ?x741) ?x565) ?x137) ?x28) (<= (+ (+ (+ ?x1507 (* 5 |v9:8|)) ?x47) ?x1113) ?x79))))
(let ((?x209 (- 17)))
(let ((?x406 (* ?x209 |v11:6|)))
(let ((?x200 2))
(let ((?x459 (* ?x200 |v16:1|)))
(let ((?x114 3))
(let ((?x479 (* ?x114 |v7:10|)))
(let ((?x1490 (+ (+ (+ (+ (* 4 |v2:15|) ?x137) (* ?x311 |v7:10|)) ?x479) ?x459)))
(let ((?x10 (- 6)))
(let ((?x60 (- 2)))
(let ((?x89 (* ?x60 |v8:9|)))
(let ((?x106 5))
(let ((?x107 (* ?x106 |v12:5|)))
(let ((?x285 (- 19)))
(let ((?x286 (* ?x285 |v1:16|)))
(let ((?x1478 (+ (+ (* 13 |v7:10|) (* 12 |v14:3|)) (* ?x136 |v7:10|))))
(let (($x1484 (<= (+ (+ (+ (+ ?x1478 ?x286) (* (- 3) |v7:10|)) ?x107) ?x89) ?x10)))
(let ((?x162 8))
(let ((?x1312 (* ?x136 |v16:1|)))
(let ((?x1466 (+ (+ (* ?x60 |v12:5|) (* 13 |v3:14|)) (* 20 |v6:11|))))
(let ((?x1471 (+ (+ (+ ?x1466 (* 6 |v5:12|)) (* 18 |v9:8|)) ?x1312)))
(let ((?x23 (- 5)))
(let ((?x398 13))
(let ((?x800 (* ?x398 |v16:1|)))
(let ((?x1247 (* ?x117 |v8:9|)))
(let ((?x318 (- 3)))
(let ((?x617 (* ?x318 |v13:4|)))
(let ((?x191 (- 18)))
(let ((?x1314 (* ?x191 |v12:5|)))
(let ((?x1457 (+ (+ (* 20 |v7:10|) (* ?x311 |v13:4|)) (* 0 |v5:12|))))
(let ((?x33 (- 4)))
(let ((?x1125 (* ?x311 |v6:11|)))
(let ((?x95 19))
(let ((?x204 (* ?x95 |v3:14|)))
(let ((?x194 11))
(let ((?x309 (* ?x194 |v2:15|)))
(let ((?x1450 (+ (+ (+ (* (- 20) |v15:2|) (* (- 1) |v4:13|)) ?x89) (* 15 |v8:9|))))
(let (($x1463 (or (<= (+ (+ (+ ?x1450 ?x309) ?x204) ?x1125) ?x33) (<= (+ (+ (+ (+ ?x1457 ?x1314) ?x617) ?x1247) ?x800) ?x23))))
(let (($x1515 (and (and $x1463 (and (<= (+ ?x1471 (* (- 12) |v15:2|)) ?x162) $x1484)) (and (<= (+ (+ ?x1490 ?x406) (* (- 7) |v14:3|)) ?x13) $x1513))))
(let ((?x303 (* ?x10 |v9:8|)))
(let ((?x1069 (* ?x33 |v12:5|)))
(let ((?x154 (* ?x95 |v9:8|)))
(let ((?x1439 (+ (+ (+ (* ?x33 |v6:11|) (* ?x200 |v5:12|)) (* ?x318 |v4:13|)) (* ?x318 |v5:12|))))
(let ((?x74 12))
(let ((?x673 (* ?x194 |v14:3|)))
(let ((?x750 (* ?x60 |v14:3|)))
(let ((?x1429 (+ (+ (+ (* 4 |v2:15|) (* 18 |v8:9|)) ?x750) ?x673)))
(let (($x1435 (<= (+ (+ (+ ?x1429 (* 15 |v2:15|)) ?x107) (* ?x114 |v14:3|)) ?x74)))
(let ((?x39 (- 15)))
(let ((?x56 10))
(let ((?x948 (* ?x56 |v11:6|)))
(let ((?x1420 (+ (+ (+ (* (- 16) |v1:16|) (* ?x33 |v6:11|)) |v8:9|) (* (- 12) |v5:12|))))
(let ((?x66 (- 10)))
(let ((?x1040 (* ?x66 |v14:3|)))
(let ((?x1411 (+ (+ (+ (* 18 |v13:4|) |v12:5|) (* ?x398 |v8:9|)) (* ?x106 |v8:9|))))
(let (($x1426 (and (<= (+ (+ (+ ?x1411 ?x89) (* ?x162 |v4:13|)) ?x1040) ?x79) (<= (+ (+ (+ ?x1420 ?x741) (* ?x23 |v14:3|)) ?x948) ?x39))))
(let ((?x99 15))
(let ((?x534 (* ?x10 |v16:1|)))
(let ((?x213 (- 20)))
(let ((?x239 (* ?x213 |v17:0|)))
(let ((?x1398 (+ (+ (+ (* ?x60 |v7:10|) (* ?x28 |v14:3|)) (* ?x136 |v4:13|)) (* ?x23 |v17:0|))))
(let ((?x267 (- 1)))
(let ((?x428 (* ?x267 |v6:11|)))
(let ((?x142 (- 12)))
(let ((?x938 (* ?x142 |v6:11|)))
(let ((?x510 (* ?x28 |v1:16|)))
(let ((?x243 (* ?x194 |v6:11|)))
(let ((?x1389 (+ (+ (+ (* ?x114 |v1:16|) (* ?x209 |v13:4|)) (* 20 |v11:6|)) ?x243)))
(let (($x1404 (or (<= (+ (+ (+ ?x1389 ?x510) ?x938) ?x428) ?x200) (<= (+ (+ (+ ?x1398 ?x239) (* ?x209 |v6:11|)) ?x534) ?x99))))
(let ((?x324 6))
(let ((?x689 (* ?x324 |v13:4|)))
(let ((?x1369 (* ?x209 |v2:15|)))
(let ((?x1381 (+ (+ (+ (+ (* ?x285 |v4:13|) (* ?x267 |v14:3|)) (* ?x66 |v8:9|)) ?x1125) (* ?x191 |v6:11|))))
(let ((?x51 0))
(let ((?x683 (* ?x51 |v9:8|)))
(let ((?x1372 (+ (+ (+ (* (- 16) |v9:8|) (* ?x33 |v2:15|)) ?x1369) (* ?x23 |v8:9|))))
(let (($x1385 (or (<= (+ (+ (+ ?x1372 ?x565) ?x683) ?x689) ?x142) (<= (+ (+ ?x1381 ?x1369) ?x689) ?x209))))
(let (($x1446 (or (and $x1385 $x1404) (and $x1426 (or $x1435 (<= (+ (+ (+ ?x1439 ?x154) ?x1069) ?x303) ?x79))))))
(let ((?x600 (* ?x86 |v3:14|)))
(let ((?x1356 (+ (+ (+ (* ?x51 |v1:16|) (* 4 |v12:5|)) (* ?x209 |v10:7|)) ?x866)))
(let ((?x202 (* ?x136 |v6:11|)))
(let ((?x34 (* ?x33 |v7:10|)))
(let ((?x779 (* ?x285 |v6:11|)))
(let ((?x1348 (+ (+ (+ (+ (* ?x99 |v6:11|) (* ?x86 |v4:13|)) (* ?x318 |v17:0|)) ?x779) ?x34)))
(let (($x1362 (or (<= (+ (+ ?x1348 ?x202) (* ?x267 |v12:5|)) ?x191) (<= (+ (+ (+ ?x1356 ?x600) (* ?x191 |v0:17|)) ?x1247) ?x142))))
(let ((?x71 (- 16)))
(let ((?x1123 (* ?x71 |v12:5|)))
(let ((?x1338 (+ (+ (+ (+ (* ?x191 |v4:13|) (* ?x162 |v17:0|)) (* ?x13 |v2:15|)) ?x1123) (* ?x28 |v16:1|))))
(let ((?x487 (* ?x51 |v4:13|)))
(let ((?x1049 (* ?x213 |v15:2|)))
(let ((?x710 (* ?x162 |v9:8|)))
(let ((?x1327 (+ (+ (+ (* 14 |v13:4|) (* ?x28 |v3:14|)) (* ?x23 |v9:8|)) ?x710)))
(let (($x1344 (or (<= (+ (+ (+ ?x1327 ?x1049) (* ?x398 |v4:13|)) ?x487) ?x106) (<= (+ (+ ?x1338 (* ?x106 |v1:16|)) (* ?x86 |v1:16|)) ?x311))))
(let ((?x473 (* ?x162 |v6:11|)))
(let ((?x1032 (* ?x398 |v17:0|)))
(let ((?x1318 (+ (+ (+ (+ (+ (* ?x213 |v16:1|) ?x1113) ?x1312) ?x1314) (* ?x398 |v5:12|)) ?x1032)))
(let ((?x730 (* ?x130 |v8:9|)))
(let ((?x990 (* ?x398 |v6:11|)))
(let ((?x1302 (* ?x130 |v15:2|)))
(let ((?x1306 (+ (+ (+ (+ (* ?x324 |v14:3|) (* ?x13 |v7:10|)) ?x1302) ?x1302) (* ?x136 |v2:15|))))
(let ((?x44 4))
(let ((?x219 (* ?x99 |v3:14|)))
(let ((?x678 (* ?x99 |v7:10|)))
(let ((?x1294 (+ (+ (+ (+ (* ?x71 |v7:10|) (* ?x117 |v14:3|)) (* ?x398 |v3:14|)) ?x678) (* ?x311 |v12:5|))))
(let ((?x292 (* ?x200 |v2:15|)))
(let ((?x431 (* ?x86 |v6:11|)))
(let ((?x1285 (+ (+ (+ (+ (* ?x267 |v17:0|) (* ?x86 |v9:8|)) (* ?x10 |v1:16|)) ?x683) |v5:12|)))
(let (($x1299 (or (<= (+ (+ ?x1285 ?x431) ?x292) ?x56) (<= (+ (+ ?x1294 ?x219) (* ?x10 |v7:10|)) ?x44))))
(let (($x1322 (and $x1299 (and (<= (+ (+ ?x1306 ?x990) ?x730) ?x130) (<= (+ ?x1318 ?x473) ?x99)))))
(let ((?x860 (* ?x74 |v1:16|)))
(let ((?x946 (* ?x324 |v9:8|)))
(let ((?x1199 (* ?x194 |v9:8|)))
(let ((?x252 (- 7)))
(let ((?x1059 (* ?x252 |v2:15|)))
(let ((?x1273 (+ (+ (+ (+ (* ?x23 |v15:2|) (* ?x117 |v17:0|)) (* ?x60 |v7:10|)) ?x1059) ?x1199)))
(let ((?x532 (* ?x324 |v3:14|)))
(let ((?x210 (* ?x209 |v16:1|)))
(let ((?x1265 (+ (+ (+ (+ (* ?x117 |v10:7|) (* ?x79 |v12:5|)) (* ?x106 |v0:17|)) ?x210) (* ?x33 |v1:16|))))
(let (($x1277 (or (<= (+ (+ ?x1265 (* ?x99 |v15:2|)) ?x532) 1) (<= (+ (+ ?x1273 ?x946) ?x860) ?x56))))
(let ((?x1252 (+ (+ (+ (+ |v12:5| (* ?x200 |v1:16|)) ?x1247) (* ?x114 |v1:16|)) (* ?x267 |v13:4|))))
(let ((?x646 (* ?x267 |v5:12|)))
(let ((?x1237 (* ?x60 |v13:4|)))
(let ((?x1242 (+ (+ (+ (+ ?x1237 (* ?x162 |v1:16|)) (* ?x66 |v1:16|)) (* ?x136 |v12:5|)) ?x137)))
(let (($x1258 (and (<= (+ (+ ?x1242 ?x1237) ?x646) ?x33) (<= (+ (+ ?x1252 (* ?x136 |v5:12|)) (* ?x318 |v3:14|)) ?x28))))
(let ((?x956 (* ?x28 |v17:0|)))
(let ((?x482 (* ?x194 |v7:10|)))
(let ((?x1230 (+ (+ (+ (+ (* ?x142 |v12:5|) (* ?x311 |v13:4|)) ?x34) (* ?x213 |v14:3|)) ?x482)))
(let ((?x638 (* ?x285 |v5:12|)))
(let ((?x1054 (* ?x285 |v4:13|)))
(let ((?x1221 (+ (+ (+ (* ?x44 |v12:5|) (* ?x74 |v14:3|)) (* ?x213 |v1:16|)) (* ?x285 |v2:15|))))
(let (($x1235 (and (<= (+ (+ (+ ?x1221 ?x1054) ?x638) ?x204) ?x136) (<= (+ (+ ?x1230 (* (- 8) |v0:17|)) ?x956) ?x99))))
(let ((?x156 (* ?x74 |v16:1|)))
(let ((?x840 (* ?x39 |v1:16|)))
(let ((?x746 (* ?x130 |v17:0|)))
(let ((?x1212 (+ (+ (+ (+ (* ?x162 |v17:0|) ?x532) (* ?x191 |v15:2|)) (* ?x71 |v8:9|)) ?x746)))
(let ((?x1206 (* ?x99 |v6:11|)))
(let ((?x91 14))
(let ((?x475 (* ?x91 |v1:16|)))
(let ((?x1203 (+ (+ (+ (+ (* ?x267 |v3:14|) (* ?x23 |v5:12|)) ?x1199) ?x475) (* ?x398 |v13:4|))))
(let (($x1216 (and (<= (+ (+ ?x1203 (* ?x213 |v5:12|)) ?x1206) ?x213) (<= (+ (+ ?x1212 ?x840) ?x156) ?x79))))
(let (($x1517 (or (or (or (and $x1216 $x1235) (and $x1258 $x1277)) (or $x1322 (or $x1344 $x1362))) (and $x1446 $x1515))))
(let ((?x942 (* ?x142 |v7:10|)))
(let ((?x1188 (* ?x60 |v12:5|)))
(let ((?x1186 (+ (+ (+ (* ?x56 |v0:17|) (* ?x33 |v3:14|)) (* ?x114 |v4:13|)) (* ?x44 |v8:9|))))
(let ((?x858 (* ?x79 |v4:13|)))
(let ((?x278 (* ?x194 |v13:4|)))
(let ((?x1177 (+ (+ (+ (+ (* ?x91 |v4:13|) (* ?x71 |v0:17|)) ?x617) (* ?x117 |v9:8|)) (* ?x213 |v9:8|))))
(let (($x1192 (and (<= (+ (+ ?x1177 ?x278) ?x858) ?x324) (<= (+ (+ (+ ?x1186 ?x534) ?x1188) ?x942) ?x44))))
(let ((?x1168 (+ (+ (+ (+ (+ |v9:8| |v1:16|) (* ?x13 |v9:8|)) ?x286) (* ?x398 |v10:7|)) ?x565)))
(let ((?x1157 (* ?x86 |v9:8|)))
(let ((?x124 (- 8)))
(let ((?x1037 (* ?x124 |v9:8|)))
(let ((?x1155 (+ (+ (+ (+ ?x475 (* ?x124 |v16:1|)) (* ?x213 |v7:10|)) (* ?x213 |v0:17|)) ?x1037)))
(let ((?x821 (* ?x124 |v15:2|)))
(let ((?x235 (* ?x66 |v4:13|)))
(let ((?x874 (* ?x311 |v1:16|)))
(let ((?x1146 (+ (+ (+ (+ (* ?x106 |v16:1|) (* ?x10 |v0:17|)) (* ?x79 |v0:17|)) ?x874) ?x235)))
(let (($x1160 (and (<= (+ (+ ?x1146 (* 18 |v11:6|)) ?x821) ?x66) (<= (+ (+ ?x1155 ?x154) ?x1157) ?x95))))
(let ((?x245 (* ?x162 |v17:0|)))
(let ((?x1137 (+ (+ (+ (+ (* ?x191 |v13:4|) (* ?x74 |v15:2|)) (* ?x191 |v16:1|)) ?x956) (* ?x318 |v1:16|))))
(let ((?x344 (* ?x23 |v1:16|)))
(let ((?x918 (* ?x285 |v12:5|)))
(let ((?x1129 (+ (+ (+ (+ (+ ?x47 ?x1123) ?x1125) (* ?x200 |v17:0|)) (* ?x39 |v5:12|)) ?x918)))
(let (($x1142 (or (<= (+ ?x1129 ?x344) ?x324) (<= (+ (+ ?x1137 ?x245) (* ?x95 |v4:13|)) ?x398))))
(let ((?x560 (* ?x200 |v15:2|)))
(let ((?x133 (* ?x117 |v9:8|)))
(let ((?x1116 (+ (+ (+ (+ (+ ?x292 (* ?x66 |v10:7|)) (* ?x213 |v11:6|)) ?x1113) ?x133) ?x560)))
(let ((?x1104 (* ?x267 |v3:14|)))
(let ((?x578 (* ?x200 |v17:0|)))
(let ((?x1105 (+ (+ (+ (+ (* ?x311 |v17:0|) (* ?x33 |v16:1|)) (* ?x130 |v11:6|)) ?x578) ?x1104)))
(let (($x1120 (or (<= (+ (+ ?x1105 (* ?x56 |v8:9|)) (* ?x209 |v7:10|)) ?x194) (<= (+ ?x1116 (* ?x33 |v17:0|)) ?x106))))
(let ((?x1096 (* ?x71 |v8:9|)))
(let ((?x490 (* ?x95 |v0:17|)))
(let ((?x910 (* ?x124 |v5:12|)))
(let ((?x1094 (+ (+ (+ (+ (* ?x106 |v7:10|) (* ?x213 |v12:5|)) ?x638) (* ?x209 |v12:5|)) ?x910)))
(let ((?x14 (* ?x13 |v13:4|)))
(let ((?x1085 (+ (+ (+ (+ ?x860 (* ?x56 |v9:8|)) (* ?x162 |v3:14|)) (* ?x74 |v15:2|)) (* ?x200 |v6:11|))))
(let (($x1099 (and (<= (+ (+ ?x1085 ?x14) (* ?x13 |v0:17|)) ?x311) (<= (+ (+ ?x1094 ?x490) ?x1096) ?x23))))
(let ((?x579 (* ?x13 |v1:16|)))
(let ((?x1073 (+ (+ (+ (+ (* ?x194 |v17:0|) ?x1069) (* ?x106 |v16:1|)) (* ?x191 |v10:7|)) ?x942)))
(let ((?x388 (* ?x213 |v13:4|)))
(let ((?x1063 (+ (+ (+ (+ (* ?x28 |v12:5|) ?x1059) (* ?x71 |v0:17|)) (* ?x66 |v5:12|)) ?x388)))
(let (($x1078 (or (<= (+ (+ ?x1063 ?x800) (* 20 |v5:12|)) ?x191) (<= (+ (+ ?x1073 ?x579) (* ?x252 |v7:10|)) ?x267))))
(let ((?x408 (* ?x209 |v5:12|)))
(let ((?x971 (* ?x71 |v1:16|)))
(let ((?x1052 (+ (+ (+ (+ (* ?x23 |v7:10|) (* ?x91 |v16:1|)) ?x1049) (* ?x74 |v3:14|)) ?x971)))
(let ((?x1043 (+ (+ (+ (+ (+ (* ?x23 |v6:11|) ?x1037) |v9:8|) ?x1040) (* ?x28 |v11:6|)) |v9:8|)))
(let (($x1057 (and (<= (+ ?x1043 (* ?x39 |v17:0|)) ?x99) (<= (+ (+ ?x1052 ?x408) ?x1054) ?x39))))
(let (($x1195 (or (and (or $x1057 $x1078) (and $x1099 $x1120)) (and (and $x1142 $x1160) (or (<= (+ ?x1168 (* ?x318 |v15:2|)) ?x285) $x1192)))))
(let ((?x18 18))
(let ((?x282 (* ?x91 |v15:2|)))
(let ((?x1029 (+ (+ (+ (* ?x51 |v1:16|) (* ?x33 |v16:1|)) (* ?x398 |v3:14|)) (* ?x267 |v1:16|))))
(let ((?x685 (* ?x66 |v15:2|)))
(let ((?x794 (* ?x213 |v6:11|)))
(let ((?x1017 (+ (+ (+ (+ (* ?x23 |v9:8|) (* ?x60 |v3:14|)) (* ?x324 |v6:11|)) ?x794) |v11:6|)))
(let ((?x370 (* ?x191 |v2:15|)))
(let ((?x1007 (+ (+ (+ (+ ?x14 (* ?x60 |v9:8|)) (* ?x33 |v5:12|)) (* ?x191 |v15:2|)) (* ?x285 |v10:7|))))
(let (($x1022 (and (<= (+ (+ ?x1007 ?x370) (* ?x130 |v14:3|)) ?x117) (<= (+ (+ ?x1017 ?x685) ?x431) 1))))
(let ((?x883 (* ?x252 |v9:8|)))
(let ((?x994 (+ (+ (+ (+ (* 20 |v1:16|) (* ?x209 |v9:8|)) ?x990) ?x883) (* ?x136 |v13:4|))))
(let ((?x634 (* ?x252 |v3:14|)))
(let ((?x305 (* ?x39 |v12:5|)))
(let ((?x241 (* ?x124 |v17:0|)))
(let ((?x985 (+ (+ (+ (+ (* ?x200 |v1:16|) (* ?x124 |v10:7|)) (* ?x44 |v2:15|)) ?x241) (* ?x191 |v1:16|))))
(let (($x999 (and (<= (+ (+ ?x985 ?x305) ?x634) ?x91) (<= (+ (+ ?x994 ?x579) (* ?x398 |v12:5|)) ?x285))))
(let ((?x972 (+ (+ (+ (+ |v7:10| (* ?x23 |v15:2|)) (* ?x74 |v2:15|)) (* ?x66 |v1:16|)) ?x971)))
(let ((?x963 (+ (+ (+ (+ (+ ?x956 ?x459) (* ?x79 |v1:16|)) ?x210) (* ?x74 |v3:14|)) (* ?x86 |v17:0|))))
(let (($x978 (and (<= (+ ?x963 (* ?x23 |v10:7|)) ?x324) (<= (+ (+ ?x972 (* ?x79 |v10:7|)) (* ?x79 |v3:14|)) ?x10))))
(let ((?x951 (+ (+ (+ (+ (+ (* ?x191 |v14:3|) ?x942) (* ?x66 |v2:15|)) ?x946) ?x948) (* ?x114 |v3:14|))))
(let ((?x828 (* ?x200 |v11:6|)))
(let ((?x466 (* ?x51 |v8:9|)))
(let ((?x937 (+ (+ (+ (+ |v16:1| (* ?x162 |v10:7|)) (* ?x33 |v10:7|)) (* ?x285 |v17:0|)) ?x466)))
(let (($x955 (and (<= (+ (+ ?x937 ?x938) ?x828) ?x66) (<= (+ ?x951 (* ?x10 |v15:2|)) ?x71))))
(let (($x1036 (and (and (or $x955 $x978) (and $x999 $x1022)) (<= (+ (+ (+ ?x1029 (* 20 |v16:1|)) ?x1032) ?x282) ?x18))))
(let ((?x187 20))
(let ((?x298 (* ?x187 |v12:5|)))
(let ((?x921 (+ (+ (+ (+ (* ?x66 |v8:9|) ?x137) (* ?x95 |v14:3|)) ?x918) (* ?x130 |v0:17|))))
(let ((?x879 (* ?x33 |v6:11|)))
(let ((?x908 (+ (+ (+ (* ?x162 |v10:7|) (* ?x213 |v7:10|)) (* ?x318 |v10:7|)) (* ?x51 |v17:0|))))
(let (($x926 (or (<= (+ (+ (+ ?x908 ?x879) ?x910) (* ?x99 |v5:12|)) ?x44) (<= (+ (+ ?x921 (* ?x95 |v12:5|)) ?x298) ?x194))))
(let ((?x220 (* ?x200 |v1:16|)))
(let ((?x345 (* ?x267 |v10:7|)))
(let ((?x705 (* ?x200 |v5:12|)))
(let ((?x900 (+ (+ (+ (+ (* ?x18 |v15:2|) (* ?x398 |v9:8|)) (* ?x318 |v0:17|)) ?x705) (* ?x106 |v5:12|))))
(let ((?x171 (* ?x130 |v10:7|)))
(let ((?x890 (+ (+ (+ (+ (+ ?x883 ?x638) (* ?x91 |v8:9|)) (* ?x28 |v5:12|)) ?x171) |v9:8|)))
(let (($x904 (or (<= (+ ?x890 (* ?x18 |v6:11|)) ?x56) (<= (+ (+ ?x900 ?x345) ?x220) ?x106))))
(let ((?x877 (* ?x60 |v7:10|)))
(let ((?x37 (* ?x13 |v15:2|)))
(let ((?x878 (+ (+ (+ (+ (+ (* ?x91 |v17:0|) (* ?x142 |v9:8|)) ?x204) ?x874) ?x37) ?x877)))
(let ((?x864 (+ (+ (+ (+ (* ?x79 |v16:1|) ?x858) ?x860) (* ?x398 |v11:6|)) (* ?x267 |v2:15|))))
(let ((?x851 (* ?x213 |v0:17|)))
(let ((?x852 (+ (+ (+ (+ ?x219 (* ?x117 |v13:4|)) (* ?x10 |v0:17|)) (* ?x99 |v17:0|)) ?x851)))
(let (($x869 (and (<= (+ (+ ?x852 (* ?x10 |v11:6|)) (* ?x191 |v17:0|)) ?x106) (<= (+ (+ ?x864 ?x526) ?x866) ?x285))))
(let ((?x435 (* ?x194 |v3:14|)))
(let ((?x109 (* ?x106 |v4:13|)))
(let ((?x839 (+ (+ (+ (+ (* ?x213 |v10:7|) (* ?x23 |v6:11|)) (* ?x311 |v4:13|)) ?x109) |v3:14|)))
(let ((?x826 (* ?x213 |v12:5|)))
(let ((?x829 (+ (+ (+ (+ (+ (* ?x51 |v12:5|) ?x821) ?x475) (* ?x18 |v1:16|)) ?x826) ?x828)))
(let ((?x80 (* ?x79 |v0:17|)))
(let ((?x814 (+ (+ (+ (* ?x71 |v5:12|) (* ?x60 |v10:7|)) (* ?x267 |v8:9|)) (* ?x106 |v17:0|))))
(let (($x833 (or (<= (+ (+ (+ ?x814 ?x80) ?x282) (* ?x18 |v3:14|)) ?x162) (<= (+ ?x829 (* ?x79 |v11:6|)) ?x318))))
(let ((?x804 (* ?x23 |v7:10|)))
(let ((?x802 (* ?x213 |v7:10|)))
(let ((?x801 (+ (+ (+ (+ (* ?x311 |v9:8|) (* ?x142 |v3:14|)) (* ?x86 |v5:12|)) ?x487) ?x800)))
(let ((?x788 (* ?x318 |v17:0|)))
(let ((?x791 (+ (+ (+ (+ (* ?x23 |v0:17|) (* ?x124 |v1:16|)) (* ?x56 |v9:8|)) ?x788) (* ?x194 |v0:17|))))
(let (($x807 (or (<= (+ (+ ?x791 (* ?x95 |v13:4|)) ?x794) ?x114) (<= (+ (+ ?x801 ?x802) ?x804) ?x398))))
(let ((?x781 (* ?x86 |v5:12|)))
(let ((?x778 (+ (+ (+ (+ (* ?x142 |v3:14|) (* ?x86 |v4:13|)) ?x210) (* ?x51 |v11:6|)) ?x730)))
(let ((?x768 (* ?x191 |v13:4|)))
(let ((?x765 (+ (+ (+ (* ?x130 |v5:12|) (* ?x130 |v5:12|)) (* ?x142 |v1:16|)) (* ?x95 |v10:7|))))
(let (($x784 (and (<= (+ (+ (+ ?x765 (* ?x86 |v14:3|)) ?x768) (* ?x39 |v3:14|)) ?x99) (<= (+ (+ ?x778 ?x779) ?x781) ?x130))))
(let (($x929 (and (and (or $x784 $x807) (and $x833 (<= (+ (+ ?x839 ?x840) ?x435) ?x51))) (and (and $x869 (<= (+ ?x878 ?x879) ?x194)) (and $x904 $x926)))))
(let ((?x754 (* ?x318 |v4:13|)))
(let ((?x545 (* ?x60 |v3:14|)))
(let ((?x188 (* ?x187 |v7:10|)))
(let ((?x753 (+ (+ (+ (+ (+ ?x746 (* ?x252 |v17:0|)) (* ?x130 |v5:12|)) ?x750) ?x188) ?x545)))
(let ((?x739 (* ?x66 |v5:12|)))
(let ((?x583 (* ?x267 |v7:10|)))
(let ((?x740 (+ (+ (+ (+ (* ?x56 |v7:10|) (* ?x130 |v1:16|)) (* ?x267 |v8:9|)) ?x583) ?x739)))
(let (($x757 (and (<= (+ (+ ?x740 ?x741) (* ?x142 |v8:9|)) ?x324) (<= (+ ?x753 ?x754) ?x106))))
(let ((?x456 (* ?x56 |v17:0|)))
(let ((?x729 (+ (+ (+ (+ (+ ?x278 |v10:7|) (* ?x324 |v0:17|)) (* ?x117 |v11:6|)) ?x565) ?x456)))
(let ((?x720 (* ?x56 |v9:8|)))
(let ((?x717 (+ (+ (+ (+ (* ?x28 |v7:10|) ?x710) (* ?x311 |v0:17|)) (* ?x252 |v6:11|)) (* ?x191 |v8:9|))))
(let (($x733 (or (<= (+ (+ ?x717 (* ?x209 |v14:3|)) ?x720) ?x252) (<= (+ ?x729 ?x730) ?x71))))
(let ((?x248 (* ?x117 |v13:4|)))
(let ((?x477 (* ?x398 |v11:6|)))
(let ((?x703 (+ (+ (+ (+ (* ?x39 |v10:7|) (* ?x398 |v3:14|)) (* ?x324 |v10:7|)) ?x477) (* ?x44 |v11:6|))))
(let ((?x692 (+ (+ (+ (+ (+ (* ?x10 |v4:13|) ?x683) ?x685) (* ?x114 |v9:8|)) ?x689) (* ?x324 |v8:9|))))
(let (($x708 (or (<= (+ ?x692 (* ?x79 |v14:3|)) ?x311) (<= (+ (+ ?x703 ?x248) ?x705) ?x74))))
(let ((?x622 (* ?x66 |v0:17|)))
(let ((?x675 (* ?x39 |v5:12|)))
(let ((?x676 (+ (+ (+ (+ (* ?x79 |v7:10|) (* ?x318 |v9:8|)) (* ?x95 |v8:9|)) ?x673) ?x675)))
(let ((?x667 (* ?x95 |v14:3|)))
(let ((?x665 (* ?x124 |v10:7|)))
(let ((?x663 (* ?x23 |v15:2|)))
(let ((?x661 (* ?x311 |v9:8|)))
(let ((?x664 (+ (+ (+ (+ (* ?x187 |v10:7|) (* ?x66 |v1:16|)) (* ?x398 |v9:8|)) ?x661) ?x663)))
(let (($x681 (and (<= (+ (+ ?x664 ?x665) ?x667) ?x252) (<= (+ (+ ?x676 ?x622) ?x678) ?x95))))
(let ((?x644 (* ?x86 |v4:13|)))
(let ((?x647 (+ (+ (+ (+ (* ?x60 |v11:6|) (* ?x106 |v11:6|)) (* ?x18 |v10:7|)) ?x644) ?x646)))
(let ((?x24 (* ?x23 |v16:1|)))
(let ((?x637 (+ (+ (+ (+ (+ (* ?x71 |v6:11|) ?x241) (* ?x117 |v3:14|)) ?x634) ?x298) ?x24)))
(let (($x653 (and (<= (+ ?x637 ?x638) ?x213) (<= (+ (+ ?x647 (* ?x114 |v2:15|)) (* ?x60 |v5:12|)) ?x162))))
(let ((?x273 (* ?x191 |v14:3|)))
(let ((?x626 (+ (+ (+ (+ (+ ?x617 (* ?x117 |v4:13|)) (* ?x252 |v8:9|)) ?x622) ?x273) (* ?x13 |v6:11|))))
(let ((?x385 (* ?x71 |v7:10|)))
(let ((?x612 (+ (+ (+ (+ (* ?x130 |v1:16|) (* ?x267 |v4:13|)) ?x487) (* ?x51 |v7:10|)) ?x385)))
(let (($x630 (or (<= (+ (+ ?x612 ?x487) (* ?x318 |v2:15|)) ?x60) (<= (+ ?x626 (* ?x86 |v8:9|)) ?x99))))
(let ((?x461 (* ?x66 |v10:7|)))
(let ((?x599 (+ (+ (+ (+ (* ?x209 |v9:8|) (* ?x106 |v10:7|)) ?x133) (* ?x311 |v7:10|)) (* ?x209 |v15:2|))))
(let ((?x588 (+ (+ (+ (+ (+ ?x578 ?x579) (* ?x311 |v3:14|)) ?x583) (* ?x44 |v13:4|)) (* ?x28 |v13:4|))))
(let (($x604 (or (<= (+ ?x588 (* ?x86 |v16:1|)) ?x91) (<= (+ (+ ?x599 ?x600) ?x461) ?x56))))
(let ((?x574 (* ?x51 |v1:16|)))
(let ((?x570 (* ?x209 |v13:4|)))
(let ((?x571 (+ (+ (+ (+ (* ?x60 |v15:2|) ?x565) (* ?x99 |v1:16|)) (* ?x95 |v5:12|)) ?x570)))
(let ((?x167 (* ?x33 |v13:4|)))
(let ((?x559 (+ (+ (+ (+ (* ?x187 |v3:14|) (* ?x28 |v2:15|)) (* ?x213 |v1:16|)) ?x167) (* ?x66 |v16:1|))))
(let (($x577 (or (<= (+ (+ ?x559 ?x560) ?x109) ?x209) (<= (+ (+ ?x571 (* ?x187 |v8:9|)) ?x574) ?x74))))
(let (($x760 (and (or (or $x577 $x604) (or $x630 $x653)) (and (and $x681 $x708) (and $x733 $x757)))))
(let ((?x424 (* ?x142 |v17:0|)))
(let ((?x542 (* ?x66 |v3:14|)))
(let ((?x541 (+ (+ (+ (* ?x10 |v6:11|) (* ?x285 |v9:8|)) (* ?x74 |v0:17|)) (* ?x56 |v5:12|))))
(let ((?x531 (+ (+ (+ (+ (* ?x267 |v14:3|) (* ?x398 |v14:3|)) ?x526) (* ?x23 |v3:14|)) (* ?x209 |v4:13|))))
(let (($x548 (and (<= (+ (+ ?x531 ?x532) ?x534) ?x117) (<= (+ (+ (+ ?x541 ?x542) ?x424) ?x545) ?x71))))
(let ((?x519 (* ?x18 |v8:9|)))
(let ((?x516 (+ (+ (+ (+ (* ?x74 |v14:3|) ?x510) (* ?x91 |v2:15|)) (* ?x324 |v15:2|)) (* ?x39 |v11:6|))))
(let ((?x506 (* ?x60 |v11:6|)))
(let ((?x163 (* ?x162 |v10:7|)))
(let ((?x503 (+ (+ (+ (+ (* ?x136 |v12:5|) (* ?x130 |v4:13|)) (* ?x252 |v17:0|)) ?x163) (* ?x71 |v17:0|))))
(let (($x522 (and (<= (+ (+ ?x503 (* ?x285 |v11:6|)) ?x506) ?x44) (<= (+ (+ ?x516 (* ?x39 |v6:11|)) ?x519) ?x23))))
(let ((?x491 (+ (+ (+ (+ (+ ?x482 (* ?x51 |v15:2|)) (* ?x66 |v7:10|)) ?x487) ?x239) ?x490)))
(let ((?x478 (+ (+ (+ (+ (+ (* ?x44 |v5:12|) ?x466) (* ?x117 |v1:16|)) ?x473) ?x475) ?x477)))
(let ((?x465 (+ (+ (+ (+ (+ ?x456 (* ?x44 |v3:14|)) ?x459) ?x461) |v11:6|) (* ?x130 |v6:11|))))
(let ((?x450 (+ (+ (+ (+ (* ?x23 |v6:11|) ?x303) (* ?x10 |v6:11|)) (* ?x213 |v4:13|)) (* ?x10 |v10:7|))))
(let (($x469 (and (<= (+ (+ ?x450 (* ?x209 |v1:16|)) (* ?x200 |v8:9|)) ?x285) (<= (+ ?x465 ?x466) ?x51))))
(let (($x496 (and $x469 (and (<= (+ ?x478 ?x479) ?x318) (<= (+ ?x491 (* ?x91 |v0:17|)) ?x194)))))
(let ((?x437 (* ?x318 |v10:7|)))
(let ((?x434 (+ (+ (+ (+ (* ?x39 |v7:10|) ?x428) (* ?x130 |v4:13|)) ?x431) (* ?x285 |v16:1|))))
(let ((?x418 (* ?x142 |v12:5|)))
(let ((?x421 (+ (+ (+ (+ (* ?x213 |v11:6|) (* ?x74 |v6:11|)) (* ?x200 |v10:7|)) ?x418) (* ?x18 |v4:13|))))
(let (($x440 (and (<= (+ (+ ?x421 (* ?x91 |v14:3|)) ?x424) ?x200) (<= (+ (+ ?x434 ?x435) ?x437) ?x124))))
(let ((?x405 (+ (+ (+ (* ?x91 |v2:15|) (* ?x200 |v13:4|)) (* ?x74 |v17:0|)) (* ?x124 |v12:5|))))
(let ((?x396 (* ?x28 |v11:6|)))
(let ((?x393 (+ (+ (+ (+ ?x385 (* ?x213 |v14:3|)) ?x388) (* ?x79 |v16:1|)) (* ?x318 |v16:1|))))
(let (($x413 (or (<= (+ (+ ?x393 (* ?x44 |v14:3|)) ?x396) ?x398) (<= (+ (+ (+ ?x405 ?x406) ?x408) (* ?x187 |v0:17|)) ?x86))))
(let ((?x379 (* ?x44 |v5:12|)))
(let ((?x377 (+ (+ (+ (+ ?x370 (* ?x44 |v15:2|)) (* ?x191 |v7:10|)) (* ?x23 |v9:8|)) ?x37)))
(let ((?x367 (* ?x74 |v6:11|)))
(let ((?x362 (* ?x106 |v7:10|)))
(let ((?x364 (+ (+ (+ (+ (* ?x74 |v11:6|) (* ?x318 |v12:5|)) (* ?x95 |v17:0|)) ?x362) ?x89)))
(let (($x382 (and (<= (+ (+ ?x364 (* ?x95 |v15:2|)) ?x367) ?x23) (<= (+ (+ ?x377 ?x278) ?x379) ?x33))))
(let ((?x351 (* ?x18 |v10:7|)))
(let ((?x354 (+ (+ (+ (+ (+ ?x344 ?x345) (* ?x114 |v4:13|)) (* ?x318 |v9:8|)) ?x351) (* ?x23 |v13:4|))))
(let ((?x150 (* ?x13 |v7:10|)))
(let ((?x339 (+ (+ (+ (+ (* ?x23 |v4:13|) (* ?x162 |v12:5|)) ?x156) (* ?x91 |v10:7|)) (* ?x311 |v2:15|))))
(let (($x357 (or (<= (+ (+ ?x339 (* ?x209 |v3:14|)) ?x150) ?x267) (<= (+ ?x354 |v2:15|) ?x124))))
(let ((?x321 (* ?x130 |v4:13|)))
(let ((?x320 (+ (+ (+ (+ (* ?x86 |v13:4|) |v1:16|) ?x248) (* ?x187 |v3:14|)) (* ?x318 |v6:11|))))
(let ((?x307 (* ?x187 |v1:16|)))
(let ((?x308 (+ (+ (+ (+ (+ ?x298 (* ?x200 |v13:4|)) (* ?x18 |v12:5|)) ?x303) ?x305) ?x307)))
(let (($x328 (or (<= (+ ?x308 ?x309) ?x311) (<= (+ (+ ?x320 ?x321) (* ?x324 |v1:16|)) ?x318))))
(let ((?x83 (* ?x13 |v8:9|)))
(let ((?x291 (+ (+ (+ (+ (* ?x187 |v3:14|) ?x282) ?x286) (* ?x23 |v0:17|)) (* ?x39 |v16:1|))))
(let ((?x131 (* ?x130 |v9:8|)))
(let ((?x276 (+ (+ (+ (+ (* ?x267 |v11:6|) (* ?x117 |v17:0|)) (* ?x28 |v10:7|)) ?x273) (* ?x71 |v14:3|))))
(let (($x296 (and (<= (+ (+ ?x276 ?x131) ?x278) ?x66) (<= (+ (+ ?x291 ?x292) ?x83) ?x267))))
(let ((?x257 (* ?x79 |v12:5|)))
(let ((?x258 (+ (+ (+ (+ ?x248 (* ?x130 |v11:6|)) (* ?x252 |v16:1|)) (* ?x142 |v14:3|)) ?x257)))
(let ((?x244 (+ (+ (+ (+ (+ (* ?x136 |v0:17|) ?x235) (* ?x13 |v2:15|)) ?x239) ?x241) ?x243)))
(let (($x264 (or (<= (+ ?x244 ?x245) ?x209) (<= (+ (+ ?x258 (* ?x60 |v1:16|)) (* ?x79 |v9:8|)) ?x91))))
(let ((?x228 (* ?x74 |v15:2|)))
(let ((?x226 (* ?x106 |v16:1|)))
(let ((?x229 (+ (+ (+ (+ (+ ?x219 ?x220) (* ?x200 |v0:17|)) (* ?x39 |v15:2|)) ?x226) ?x228)))
(let ((?x215 (+ (+ (+ (+ (+ (* ?x200 |v9:8|) ?x202) ?x204) (* ?x44 |v6:11|)) ?x210) (* ?x213 |v2:15|))))
(let (($x233 (and (<= (+ ?x215 (* ?x114 |v17:0|)) ?x56) (<= (+ ?x229 (* ?x162 |v2:15|)) ?x162))))
(let ((?x192 (* ?x191 |v10:7|)))
(let ((?x183 (+ (+ (+ (* ?x99 |v1:16|) (* ?x86 |v12:5|)) (* ?x79 |v7:10|)) (* ?x136 |v10:7|))))
(let ((?x175 (* ?x28 |v7:10|)))
(let ((?x174 (+ (+ (+ (+ (+ ?x163 (* ?x71 |v6:11|)) ?x167) (* ?x74 |v3:14|)) ?x171) (* ?x66 |v6:11|))))
(let (($x196 (or (<= (+ ?x174 ?x175) ?x162) (<= (+ (+ (+ ?x183 (* ?x91 |v11:6|)) ?x188) ?x192) ?x194))))
(let ((?x153 (+ (+ (+ (+ (* ?x74 |v7:10|) (* ?x28 |v14:3|)) (* ?x130 |v3:14|)) ?x150) (* ?x39 |v8:9|))))
(let ((?x140 (* ?x74 |v11:6|)))
(let ((?x134 (+ (+ (+ (+ (* ?x23 |v2:15|) (* ?x124 |v4:13|)) (* ?x74 |v12:5|)) ?x131) ?x133)))
(let (($x159 (and (<= (+ (+ ?x134 ?x137) ?x140) ?x142) (<= (+ (+ ?x153 ?x154) ?x156) ?x142))))
(let ((?x110 (+ (+ (+ (+ (* ?x95 |v2:15|) (* ?x99 |v1:16|)) (* ?x79 |v7:10|)) ?x107) ?x109)))
(let ((?x88 (+ (+ (+ (+ (+ (* ?x71 |v0:17|) (* ?x74 |v0:17|)) ?x37) ?x80) ?x83) (* ?x86 |v0:17|))))
(let (($x119 (or (<= (+ ?x88 ?x89) ?x91) (<= (+ (+ ?x110 |v14:3|) (* ?x114 |v16:1|)) ?x117))))
(let ((?x58 (+ (+ (+ (+ (* ?x44 |v4:13|) ?x47) (* ?x51 |v2:15|)) |v15:2|) (* ?x56 |v2:15|))))
(let ((?x30 (+ (+ (+ (+ (* ?x10 |v13:4|) ?x14) (* ?x18 |v0:17|)) ?x24) (* ?x28 |v9:8|))))
(let (($x68 (or (<= (+ (+ ?x30 ?x34) ?x37) ?x39) (<= (+ (+ ?x58 (* ?x60 |v16:1|)) (* ?x60 |v17:0|)) ?x66))))
(let (($x331 (or (and (or $x68 $x119) (and $x159 $x196)) (or (or $x233 $x264) (and $x296 $x328)))))
(let (($x552 (and $x331 (or (or (or $x357 $x382) (or $x413 $x440)) (or $x496 (and $x522 $x548))))))
(or (and $x552 (or $x760 $x929)) (and (and $x1036 $x1195) $x1517)))))))))))))))))))))))))))))))))))))))))))))))))))))))))))))))))))))))))))))))))))))))))))))))))))))))))))))))))))))))))))))))))))))))))))))))))))))))))))))))))))))))))))))))))))))))))))))))))))))))))))))))))))))))))))))))))))))))))))))))))))))))))))))))))))))))))))))))))))))))))))))))))))))))))))))))))))))))))))))))))))))))))))))))))))))))))))))))))))))))))))))))))))))))))))))))))))))))))))
)
)
)
)
)
)
)
)
)
)
)
)
)
)
)
)
)
)
(check-sat)
(exit)

